c cvc-mult2-2n2n_2
c i 3  6  2  8  5  11  21  37  0
c 2  : (b_16)[0]
c 3  : (a_15)[0]
c 4  : n1552
c 5  : (c_17)[0]
c 6  : (a_15)[1]
c 7  : n1553
c 8  : (b_16)[1]
c 9  : n1556
c 10  : n1557
c 11  : (c_17)[1]
c 12  : n1546
c 13  : n1554
c 14  : n1562
c 15  : n1563
c 16  : n1602
c 17  : n1604
c 18  : n1550
c 19  : n1574
c 20  : n1605
c 21  : (c_17)[2]
c 22  : n1547
c 23  : n1555
c 24  : n1568
c 25  : n1569
c 26  : n1607
c 27  : n1609
c 28  : n1610
c 29  : n1611
c 30  : n1580
c 31  : n1612
c 32  : n1614
c 33  : n1616
c 34  : n1551
c 35  : n1586
c 36  : n1617
c 37  : (c_17)[3]
p cnf 36 97
2  -4  0
3  -4  0
-2  -3  4  0
-4  5  0
4  -5  0
2  -7  0
6  -7  0
-2  -6  7  0
3  -9  0
8  -9  0
-3  -8  9  0
7  9  -10  0
-7  -9  -10  0
7  -9  10  0
-7  9  10  0
-10  11  0
10  -11  0
2  -13  0
12  -13  0
-2  -12  13  0
6  -14  0
8  -14  0
-6  -8  14  0
13  14  -15  0
-13  -14  -15  0
13  -14  15  0
-13  14  15  0
2  -16  0
6  -16  0
3  -16  0
8  -16  0
-2  -3  -6  -8  16  0
15  16  -17  0
-15  -16  -17  0
15  -16  17  0
-15  16  17  0
3  -19  0
18  -19  0
-3  -18  19  0
17  19  -20  0
-17  -19  -20  0
17  -19  20  0
-17  19  20  0
-20  21  0
20  -21  0
2  -23  0
22  -23  0
-2  -22  23  0
12  -24  0
8  -24  0
-8  -12  24  0
23  24  -25  0
-23  -24  -25  0
23  -24  25  0
-23  24  25  0
2  -26  0
12  -26  0
6  -26  0
8  -26  0
-2  -6  -8  -12  26  0
15  -27  0
2  -27  0
6  -27  0
3  -27  0
8  -27  0
-2  -3  -6  -8  -15  27  0
-26  28  0
-27  28  0
26  27  -28  0
25  28  -29  0
-25  -28  -29  0
25  -28  29  0
-25  28  29  0
6  -30  0
18  -30  0
-6  -18  30  0
29  30  -31  0
-29  -30  -31  0
29  -30  31  0
-29  30  31  0
17  -32  0
3  -32  0
18  -32  0
-3  -17  -18  32  0
31  32  -33  0
-31  -32  -33  0
31  -32  33  0
-31  32  33  0
3  -35  0
34  -35  0
-3  -34  35  0
33  35  -36  0
-33  -35  -36  0
33  -35  36  0
-33  35  36  0
-36  37  0
36  -37  0
-12  0
-18  0
-22  0
-34  0
